
Gurobi 9.5.0 (win64) logging started Tue Jun  7 18:05:31 2022

Set parameter LogFile to value "C:\Users\kmajd1\Documents\NNRepLayer_v2\demos\examples\tc7_walking_example\v2\repair_bound_constraint\repair_net/logs/opt_log_6_7_2022_18_5_11.log"
Gurobi Optimizer version 9.5.0 build v9.5.0rc5 (win64)
Thread count: 8 physical cores, 16 logical processors, using up to 16 threads
Optimize a model with 366 rows, 134 columns and 1243 nonzeros
Model fingerprint: 0x84a1a339
Model has 101 quadratic objective terms
Coefficient statistics:
  Matrix range     [6e-03, 1e+01]
  Objective range  [1e-03, 4e-01]
  QObjective range [2e-02, 2e+00]
  Bounds range     [1e+01, 4e+01]
  RHS range        [8e-04, 2e+01]
Presolve removed 212 rows and 6 columns
Presolve time: 0.01s
Presolved: 154 rows, 128 columns, 1019 nonzeros
Presolved model has 101 quadratic objective terms
Ordering time: 0.00s

Barrier statistics:
 Dense cols : 11
 AA' NZ     : 2.032e+03
 Factor NZ  : 2.950e+03
 Factor Ops : 7.934e+04 (less than 1 second per iteration)
 Threads    : 1

                  Objective                Residual
Iter       Primal          Dual         Primal    Dual     Compl     Time
   0   1.62636440e+07 -1.72866217e+07  5.29e+03 4.01e+02  8.66e+05     0s
   1   6.58188927e+06 -7.75907623e+06  3.27e+03 2.48e+02  5.82e+05     0s
   2   1.69844909e+04 -1.93941962e+06  1.70e+02 1.29e+01  4.77e+04     0s
   3   9.79796155e+01 -1.65510853e+06  1.70e-04 1.29e-05  5.34e+03     0s
   4   9.77469932e+01 -2.62224598e+03  1.09e-07 8.29e-09  8.77e+00     0s
   5   3.79356839e+01 -1.31979736e+02  1.82e-09 1.38e-10  5.48e-01     0s
   6   5.84675657e+00 -1.35822550e+01  2.13e-14 1.80e-14  6.27e-02     0s
   7   2.36043497e+00  1.03559213e+00  3.55e-14 1.92e-15  4.27e-03     0s
   8   1.97668406e+00  1.79009367e+00  3.91e-12 6.18e-16  6.02e-04     0s
   9   1.93703331e+00  1.92019435e+00  2.40e-11 7.22e-15  5.43e-05     0s
  10   1.93385511e+00  1.93349891e+00  1.65e-11 4.44e-16  1.15e-06     0s
  11   1.93374416e+00  1.93372492e+00  3.36e-10 1.13e-15  6.20e-08     0s
  12   1.93373470e+00  1.93373328e+00  4.55e-09 1.51e-14  4.57e-09     0s
  13   1.93373351e+00  1.93373346e+00  3.48e-09 8.88e-16  1.46e-10     0s

Barrier solved model in 13 iterations and 0.04 seconds (0.00 work units)
Optimal objective 1.93373351e+00

